
;this file is automatically generated: Fri Oct 30 17:04:07 CST 2020

;declarations generated

(declare-fun type_4340f05f_39dd_45ea_a1f8_4f6b53c6cc95_Class37 ( Int) Bool)
(declare-fun type_4340f05f_39dd_45ea_a1f8_4f6b53c6cc95_Class38 ( Int) Bool)
(declare-fun type_4340f05f_39dd_45ea_a1f8_4f6b53c6cc95_Class39 ( Int) Bool)
(declare-fun type_4340f05f_39dd_45ea_a1f8_4f6b53c6cc95_Class33 ( Int) Bool)
(declare-fun type_4340f05f_39dd_45ea_a1f8_4f6b53c6cc95_Class34 ( Int) Bool)
(declare-fun type_4340f05f_39dd_45ea_a1f8_4f6b53c6cc95_Class35 ( Int) Bool)
(declare-fun type_4340f05f_39dd_45ea_a1f8_4f6b53c6cc95_Class36 ( Int) Bool)
(declare-fun type_4340f05f_39dd_45ea_a1f8_4f6b53c6cc95_Class30 ( Int) Bool)
(declare-fun type_4340f05f_39dd_45ea_a1f8_4f6b53c6cc95_Class31 ( Int) Bool)
(declare-fun type_4340f05f_39dd_45ea_a1f8_4f6b53c6cc95_Class32 ( Int) Bool)
(declare-fun type_4340f05f_39dd_45ea_a1f8_4f6b53c6cc95_Class48 ( Int) Bool)
(declare-fun type_4340f05f_39dd_45ea_a1f8_4f6b53c6cc95_Class49 ( Int) Bool)
(declare-fun type_4340f05f_39dd_45ea_a1f8_4f6b53c6cc95_Class44 ( Int) Bool)
(declare-fun type_4340f05f_39dd_45ea_a1f8_4f6b53c6cc95_Class45 ( Int) Bool)
(declare-fun type_4340f05f_39dd_45ea_a1f8_4f6b53c6cc95_Class46 ( Int) Bool)
(declare-fun type_4340f05f_39dd_45ea_a1f8_4f6b53c6cc95_Class47 ( Int) Bool)
(declare-fun type_4340f05f_39dd_45ea_a1f8_4f6b53c6cc95_Class40 ( Int) Bool)
(declare-fun type_4340f05f_39dd_45ea_a1f8_4f6b53c6cc95_Class41 ( Int) Bool)
(declare-fun type_4340f05f_39dd_45ea_a1f8_4f6b53c6cc95_Class42 ( Int) Bool)
(declare-fun type_4340f05f_39dd_45ea_a1f8_4f6b53c6cc95_Class43 ( Int) Bool)
(declare-fun oclExcludes ( Int Int) Bool)
(declare-fun type_4340f05f_39dd_45ea_a1f8_4f6b53c6cc95_Class19 ( Int) Bool)
(declare-fun type_4340f05f_39dd_45ea_a1f8_4f6b53c6cc95_Class15 ( Int) Bool)
(declare-fun type_4340f05f_39dd_45ea_a1f8_4f6b53c6cc95_Class16 ( Int) Bool)
(declare-fun type_4340f05f_39dd_45ea_a1f8_4f6b53c6cc95_Class17 ( Int) Bool)
(declare-fun type_4340f05f_39dd_45ea_a1f8_4f6b53c6cc95_Class18 ( Int) Bool)
(declare-fun type_4340f05f_39dd_45ea_a1f8_4f6b53c6cc95_Class11 ( Int) Bool)
(declare-fun type_4340f05f_39dd_45ea_a1f8_4f6b53c6cc95_Class12 ( Int) Bool)
(declare-fun type_4340f05f_39dd_45ea_a1f8_4f6b53c6cc95_Class13 ( Int) Bool)
(declare-fun type_4340f05f_39dd_45ea_a1f8_4f6b53c6cc95_Class14 ( Int) Bool)
(declare-fun type_4340f05f_39dd_45ea_a1f8_4f6b53c6cc95_Class10 ( Int) Bool)
(declare-fun type_4340f05f_39dd_45ea_a1f8_4f6b53c6cc95_Class26 ( Int) Bool)
(declare-fun type_4340f05f_39dd_45ea_a1f8_4f6b53c6cc95_Class27 ( Int) Bool)
(declare-fun type_4340f05f_39dd_45ea_a1f8_4f6b53c6cc95_Class28 ( Int) Bool)
(declare-fun type_4340f05f_39dd_45ea_a1f8_4f6b53c6cc95_Class29 ( Int) Bool)
(declare-fun type_4340f05f_39dd_45ea_a1f8_4f6b53c6cc95_Class22 ( Int) Bool)
(declare-fun type_4340f05f_39dd_45ea_a1f8_4f6b53c6cc95_Class23 ( Int) Bool)
(declare-fun type_4340f05f_39dd_45ea_a1f8_4f6b53c6cc95_Class24 ( Int) Bool)
(declare-fun type_4340f05f_39dd_45ea_a1f8_4f6b53c6cc95_Class25 ( Int) Bool)
(declare-fun type_4340f05f_39dd_45ea_a1f8_4f6b53c6cc95_Class20 ( Int) Bool)
(declare-fun type_4340f05f_39dd_45ea_a1f8_4f6b53c6cc95_Class21 ( Int) Bool)
(declare-fun class9_Class9BoolAttr2 ( Int) Bool)
(declare-fun class9_Class9BoolAttr1 ( Int) Bool)
(declare-fun Cardinality ( Int) Int)
(declare-fun type_4340f05f_39dd_45ea_a1f8_4f6b53c6cc95_Class55 ( Int) Bool)
(declare-fun type_4340f05f_39dd_45ea_a1f8_4f6b53c6cc95_Class51 ( Int) Bool)
(declare-fun type_4340f05f_39dd_45ea_a1f8_4f6b53c6cc95_Class52 ( Int) Bool)
(declare-fun type_4340f05f_39dd_45ea_a1f8_4f6b53c6cc95_Class53 ( Int) Bool)
(declare-fun type_4340f05f_39dd_45ea_a1f8_4f6b53c6cc95_Class54 ( Int) Bool)
(declare-fun type_4340f05f_39dd_45ea_a1f8_4f6b53c6cc95_Class50 ( Int) Bool)
(declare-fun obj_7c0b52be_cfba_4bf4_bcc1_17a31217f98c ( Int) Int)
(declare-fun oclSelect ( Int Bool) Int)
(declare-fun Enum0 ( Int) Int)
(declare-fun Enum1 ( Int) Int)
(declare-fun Enum2 ( Int) Int)
(declare-fun container_ ( Int) Int)
(declare-fun oclIncludes ( Int Int) Bool)
(declare-fun type_4340f05f_39dd_45ea_a1f8_4f6b53c6cc95_Class8 ( Int) Bool)
(declare-fun type_4340f05f_39dd_45ea_a1f8_4f6b53c6cc95_Class9 ( Int) Bool)
(declare-fun type_4340f05f_39dd_45ea_a1f8_4f6b53c6cc95_Class6 ( Int) Bool)
(declare-fun type_4340f05f_39dd_45ea_a1f8_4f6b53c6cc95_Class7 ( Int) Bool)
(declare-fun type_4340f05f_39dd_45ea_a1f8_4f6b53c6cc95_Class4 ( Int) Bool)
(declare-fun type_4340f05f_39dd_45ea_a1f8_4f6b53c6cc95_Class5 ( Int) Bool)
(declare-fun type_4340f05f_39dd_45ea_a1f8_4f6b53c6cc95_Class2 ( Int) Bool)
(declare-fun type_4340f05f_39dd_45ea_a1f8_4f6b53c6cc95_Class3 ( Int) Bool)
(declare-fun type_4340f05f_39dd_45ea_a1f8_4f6b53c6cc95_Class0 ( Int) Bool)
(declare-fun type_4340f05f_39dd_45ea_a1f8_4f6b53c6cc95_Class1 ( Int) Bool)
(declare-fun ObjAt ( Int Int) Int)

;formula(s) generated
(assert (! (exists ((c1 Int)(c2 Int)) (and (and ( type_4340f05f_39dd_45ea_a1f8_4f6b53c6cc95_Class9 c1 )  ( type_4340f05f_39dd_45ea_a1f8_4f6b53c6cc95_Class9 c2 ) ) (or ( class9_Class9BoolAttr2 ( obj_7c0b52be_cfba_4bf4_bcc1_17a31217f98c c1 )  )  ( class9_Class9BoolAttr1 ( obj_7c0b52be_cfba_4bf4_bcc1_17a31217f98c c2 )  ) ))):named l0))
(assert (! (exists ((o Int)) ( type_4340f05f_39dd_45ea_a1f8_4f6b53c6cc95_Class0 ( obj_7c0b52be_cfba_4bf4_bcc1_17a31217f98c o )  ) ):named c0))
(assert (! (exists ((o Int)) (and (and (and (and (and ( type_4340f05f_39dd_45ea_a1f8_4f6b53c6cc95_Class1 ( obj_7c0b52be_cfba_4bf4_bcc1_17a31217f98c o )  )  ( type_4340f05f_39dd_45ea_a1f8_4f6b53c6cc95_Class45 ( obj_7c0b52be_cfba_4bf4_bcc1_17a31217f98c o )  ) ) ( type_4340f05f_39dd_45ea_a1f8_4f6b53c6cc95_Class12 ( obj_7c0b52be_cfba_4bf4_bcc1_17a31217f98c o )  ) ) ( type_4340f05f_39dd_45ea_a1f8_4f6b53c6cc95_Class33 ( obj_7c0b52be_cfba_4bf4_bcc1_17a31217f98c o )  ) ) ( type_4340f05f_39dd_45ea_a1f8_4f6b53c6cc95_Class22 ( obj_7c0b52be_cfba_4bf4_bcc1_17a31217f98c o )  ) ) ( type_4340f05f_39dd_45ea_a1f8_4f6b53c6cc95_Class39 ( obj_7c0b52be_cfba_4bf4_bcc1_17a31217f98c o )  ) )):named c1))
(assert (! (exists ((o Int)) (and (and (and (and (and (and (and (and (and ( type_4340f05f_39dd_45ea_a1f8_4f6b53c6cc95_Class10 ( obj_7c0b52be_cfba_4bf4_bcc1_17a31217f98c o )  )  ( type_4340f05f_39dd_45ea_a1f8_4f6b53c6cc95_Class45 ( obj_7c0b52be_cfba_4bf4_bcc1_17a31217f98c o )  ) ) ( type_4340f05f_39dd_45ea_a1f8_4f6b53c6cc95_Class12 ( obj_7c0b52be_cfba_4bf4_bcc1_17a31217f98c o )  ) ) ( type_4340f05f_39dd_45ea_a1f8_4f6b53c6cc95_Class55 ( obj_7c0b52be_cfba_4bf4_bcc1_17a31217f98c o )  ) ) ( type_4340f05f_39dd_45ea_a1f8_4f6b53c6cc95_Class33 ( obj_7c0b52be_cfba_4bf4_bcc1_17a31217f98c o )  ) ) ( type_4340f05f_39dd_45ea_a1f8_4f6b53c6cc95_Class22 ( obj_7c0b52be_cfba_4bf4_bcc1_17a31217f98c o )  ) ) ( type_4340f05f_39dd_45ea_a1f8_4f6b53c6cc95_Class29 ( obj_7c0b52be_cfba_4bf4_bcc1_17a31217f98c o )  ) ) ( type_4340f05f_39dd_45ea_a1f8_4f6b53c6cc95_Class39 ( obj_7c0b52be_cfba_4bf4_bcc1_17a31217f98c o )  ) ) ( type_4340f05f_39dd_45ea_a1f8_4f6b53c6cc95_Class50 ( obj_7c0b52be_cfba_4bf4_bcc1_17a31217f98c o )  ) ) ( type_4340f05f_39dd_45ea_a1f8_4f6b53c6cc95_Class41 ( obj_7c0b52be_cfba_4bf4_bcc1_17a31217f98c o )  ) )):named c2))
(assert (! (exists ((o Int)) ( type_4340f05f_39dd_45ea_a1f8_4f6b53c6cc95_Class11 ( obj_7c0b52be_cfba_4bf4_bcc1_17a31217f98c o )  ) ):named c3))
(assert (! (exists ((o Int)) (and (and (and ( type_4340f05f_39dd_45ea_a1f8_4f6b53c6cc95_Class12 ( obj_7c0b52be_cfba_4bf4_bcc1_17a31217f98c o )  )  ( type_4340f05f_39dd_45ea_a1f8_4f6b53c6cc95_Class33 ( obj_7c0b52be_cfba_4bf4_bcc1_17a31217f98c o )  ) ) ( type_4340f05f_39dd_45ea_a1f8_4f6b53c6cc95_Class22 ( obj_7c0b52be_cfba_4bf4_bcc1_17a31217f98c o )  ) ) ( type_4340f05f_39dd_45ea_a1f8_4f6b53c6cc95_Class39 ( obj_7c0b52be_cfba_4bf4_bcc1_17a31217f98c o )  ) )):named c4))
(assert (! (exists ((o Int)) (and (and (and (and (and (and (and (and (and ( type_4340f05f_39dd_45ea_a1f8_4f6b53c6cc95_Class13 ( obj_7c0b52be_cfba_4bf4_bcc1_17a31217f98c o )  )  ( type_4340f05f_39dd_45ea_a1f8_4f6b53c6cc95_Class45 ( obj_7c0b52be_cfba_4bf4_bcc1_17a31217f98c o )  ) ) ( type_4340f05f_39dd_45ea_a1f8_4f6b53c6cc95_Class12 ( obj_7c0b52be_cfba_4bf4_bcc1_17a31217f98c o )  ) ) ( type_4340f05f_39dd_45ea_a1f8_4f6b53c6cc95_Class55 ( obj_7c0b52be_cfba_4bf4_bcc1_17a31217f98c o )  ) ) ( type_4340f05f_39dd_45ea_a1f8_4f6b53c6cc95_Class33 ( obj_7c0b52be_cfba_4bf4_bcc1_17a31217f98c o )  ) ) ( type_4340f05f_39dd_45ea_a1f8_4f6b53c6cc95_Class22 ( obj_7c0b52be_cfba_4bf4_bcc1_17a31217f98c o )  ) ) ( type_4340f05f_39dd_45ea_a1f8_4f6b53c6cc95_Class29 ( obj_7c0b52be_cfba_4bf4_bcc1_17a31217f98c o )  ) ) ( type_4340f05f_39dd_45ea_a1f8_4f6b53c6cc95_Class39 ( obj_7c0b52be_cfba_4bf4_bcc1_17a31217f98c o )  ) ) ( type_4340f05f_39dd_45ea_a1f8_4f6b53c6cc95_Class50 ( obj_7c0b52be_cfba_4bf4_bcc1_17a31217f98c o )  ) ) ( type_4340f05f_39dd_45ea_a1f8_4f6b53c6cc95_Class41 ( obj_7c0b52be_cfba_4bf4_bcc1_17a31217f98c o )  ) )):named c5))
(assert (! (exists ((o Int)) (and (and (and (and (and (and (and (and (and ( type_4340f05f_39dd_45ea_a1f8_4f6b53c6cc95_Class14 ( obj_7c0b52be_cfba_4bf4_bcc1_17a31217f98c o )  )  ( type_4340f05f_39dd_45ea_a1f8_4f6b53c6cc95_Class45 ( obj_7c0b52be_cfba_4bf4_bcc1_17a31217f98c o )  ) ) ( type_4340f05f_39dd_45ea_a1f8_4f6b53c6cc95_Class12 ( obj_7c0b52be_cfba_4bf4_bcc1_17a31217f98c o )  ) ) ( type_4340f05f_39dd_45ea_a1f8_4f6b53c6cc95_Class55 ( obj_7c0b52be_cfba_4bf4_bcc1_17a31217f98c o )  ) ) ( type_4340f05f_39dd_45ea_a1f8_4f6b53c6cc95_Class33 ( obj_7c0b52be_cfba_4bf4_bcc1_17a31217f98c o )  ) ) ( type_4340f05f_39dd_45ea_a1f8_4f6b53c6cc95_Class22 ( obj_7c0b52be_cfba_4bf4_bcc1_17a31217f98c o )  ) ) ( type_4340f05f_39dd_45ea_a1f8_4f6b53c6cc95_Class29 ( obj_7c0b52be_cfba_4bf4_bcc1_17a31217f98c o )  ) ) ( type_4340f05f_39dd_45ea_a1f8_4f6b53c6cc95_Class39 ( obj_7c0b52be_cfba_4bf4_bcc1_17a31217f98c o )  ) ) ( type_4340f05f_39dd_45ea_a1f8_4f6b53c6cc95_Class50 ( obj_7c0b52be_cfba_4bf4_bcc1_17a31217f98c o )  ) ) ( type_4340f05f_39dd_45ea_a1f8_4f6b53c6cc95_Class41 ( obj_7c0b52be_cfba_4bf4_bcc1_17a31217f98c o )  ) )):named c6))
(assert (! (exists ((o Int)) ( type_4340f05f_39dd_45ea_a1f8_4f6b53c6cc95_Class15 ( obj_7c0b52be_cfba_4bf4_bcc1_17a31217f98c o )  ) ):named c7))
(assert (! (exists ((o Int)) (and (and (and (and (and ( type_4340f05f_39dd_45ea_a1f8_4f6b53c6cc95_Class16 ( obj_7c0b52be_cfba_4bf4_bcc1_17a31217f98c o )  )  ( type_4340f05f_39dd_45ea_a1f8_4f6b53c6cc95_Class45 ( obj_7c0b52be_cfba_4bf4_bcc1_17a31217f98c o )  ) ) ( type_4340f05f_39dd_45ea_a1f8_4f6b53c6cc95_Class12 ( obj_7c0b52be_cfba_4bf4_bcc1_17a31217f98c o )  ) ) ( type_4340f05f_39dd_45ea_a1f8_4f6b53c6cc95_Class33 ( obj_7c0b52be_cfba_4bf4_bcc1_17a31217f98c o )  ) ) ( type_4340f05f_39dd_45ea_a1f8_4f6b53c6cc95_Class22 ( obj_7c0b52be_cfba_4bf4_bcc1_17a31217f98c o )  ) ) ( type_4340f05f_39dd_45ea_a1f8_4f6b53c6cc95_Class39 ( obj_7c0b52be_cfba_4bf4_bcc1_17a31217f98c o )  ) )):named c8))
(assert (! (exists ((o Int)) ( type_4340f05f_39dd_45ea_a1f8_4f6b53c6cc95_Class17 ( obj_7c0b52be_cfba_4bf4_bcc1_17a31217f98c o )  ) ):named c9))
(assert (! (exists ((o Int)) (and (and (and ( type_4340f05f_39dd_45ea_a1f8_4f6b53c6cc95_Class18 ( obj_7c0b52be_cfba_4bf4_bcc1_17a31217f98c o )  )  ( type_4340f05f_39dd_45ea_a1f8_4f6b53c6cc95_Class25 ( obj_7c0b52be_cfba_4bf4_bcc1_17a31217f98c o )  ) ) ( type_4340f05f_39dd_45ea_a1f8_4f6b53c6cc95_Class24 ( obj_7c0b52be_cfba_4bf4_bcc1_17a31217f98c o )  ) ) ( type_4340f05f_39dd_45ea_a1f8_4f6b53c6cc95_Class39 ( obj_7c0b52be_cfba_4bf4_bcc1_17a31217f98c o )  ) )):named c10))
(assert (! (exists ((o Int)) (and (and (and (and (and (and (and (and (and ( type_4340f05f_39dd_45ea_a1f8_4f6b53c6cc95_Class19 ( obj_7c0b52be_cfba_4bf4_bcc1_17a31217f98c o )  )  ( type_4340f05f_39dd_45ea_a1f8_4f6b53c6cc95_Class45 ( obj_7c0b52be_cfba_4bf4_bcc1_17a31217f98c o )  ) ) ( type_4340f05f_39dd_45ea_a1f8_4f6b53c6cc95_Class12 ( obj_7c0b52be_cfba_4bf4_bcc1_17a31217f98c o )  ) ) ( type_4340f05f_39dd_45ea_a1f8_4f6b53c6cc95_Class55 ( obj_7c0b52be_cfba_4bf4_bcc1_17a31217f98c o )  ) ) ( type_4340f05f_39dd_45ea_a1f8_4f6b53c6cc95_Class33 ( obj_7c0b52be_cfba_4bf4_bcc1_17a31217f98c o )  ) ) ( type_4340f05f_39dd_45ea_a1f8_4f6b53c6cc95_Class22 ( obj_7c0b52be_cfba_4bf4_bcc1_17a31217f98c o )  ) ) ( type_4340f05f_39dd_45ea_a1f8_4f6b53c6cc95_Class29 ( obj_7c0b52be_cfba_4bf4_bcc1_17a31217f98c o )  ) ) ( type_4340f05f_39dd_45ea_a1f8_4f6b53c6cc95_Class39 ( obj_7c0b52be_cfba_4bf4_bcc1_17a31217f98c o )  ) ) ( type_4340f05f_39dd_45ea_a1f8_4f6b53c6cc95_Class50 ( obj_7c0b52be_cfba_4bf4_bcc1_17a31217f98c o )  ) ) ( type_4340f05f_39dd_45ea_a1f8_4f6b53c6cc95_Class41 ( obj_7c0b52be_cfba_4bf4_bcc1_17a31217f98c o )  ) )):named c11))
(assert (! (exists ((o Int)) ( type_4340f05f_39dd_45ea_a1f8_4f6b53c6cc95_Class2 ( obj_7c0b52be_cfba_4bf4_bcc1_17a31217f98c o )  ) ):named c12))
(assert (! (exists ((o Int)) ( type_4340f05f_39dd_45ea_a1f8_4f6b53c6cc95_Class20 ( obj_7c0b52be_cfba_4bf4_bcc1_17a31217f98c o )  ) ):named c13))
(assert (! (exists ((o Int)) (and (and (and (and (and (and (and (and (and ( type_4340f05f_39dd_45ea_a1f8_4f6b53c6cc95_Class21 ( obj_7c0b52be_cfba_4bf4_bcc1_17a31217f98c o )  )  ( type_4340f05f_39dd_45ea_a1f8_4f6b53c6cc95_Class45 ( obj_7c0b52be_cfba_4bf4_bcc1_17a31217f98c o )  ) ) ( type_4340f05f_39dd_45ea_a1f8_4f6b53c6cc95_Class12 ( obj_7c0b52be_cfba_4bf4_bcc1_17a31217f98c o )  ) ) ( type_4340f05f_39dd_45ea_a1f8_4f6b53c6cc95_Class33 ( obj_7c0b52be_cfba_4bf4_bcc1_17a31217f98c o )  ) ) ( type_4340f05f_39dd_45ea_a1f8_4f6b53c6cc95_Class22 ( obj_7c0b52be_cfba_4bf4_bcc1_17a31217f98c o )  ) ) ( type_4340f05f_39dd_45ea_a1f8_4f6b53c6cc95_Class16 ( obj_7c0b52be_cfba_4bf4_bcc1_17a31217f98c o )  ) ) ( type_4340f05f_39dd_45ea_a1f8_4f6b53c6cc95_Class29 ( obj_7c0b52be_cfba_4bf4_bcc1_17a31217f98c o )  ) ) ( type_4340f05f_39dd_45ea_a1f8_4f6b53c6cc95_Class39 ( obj_7c0b52be_cfba_4bf4_bcc1_17a31217f98c o )  ) ) ( type_4340f05f_39dd_45ea_a1f8_4f6b53c6cc95_Class41 ( obj_7c0b52be_cfba_4bf4_bcc1_17a31217f98c o )  ) ) ( type_4340f05f_39dd_45ea_a1f8_4f6b53c6cc95_Class51 ( obj_7c0b52be_cfba_4bf4_bcc1_17a31217f98c o )  ) )):named c14))
(assert (! (exists ((o Int)) (and ( type_4340f05f_39dd_45ea_a1f8_4f6b53c6cc95_Class22 ( obj_7c0b52be_cfba_4bf4_bcc1_17a31217f98c o )  )  ( type_4340f05f_39dd_45ea_a1f8_4f6b53c6cc95_Class39 ( obj_7c0b52be_cfba_4bf4_bcc1_17a31217f98c o )  ) )):named c15))
(assert (! (exists ((o Int)) (and (and (and (and ( type_4340f05f_39dd_45ea_a1f8_4f6b53c6cc95_Class23 ( obj_7c0b52be_cfba_4bf4_bcc1_17a31217f98c o )  )  ( type_4340f05f_39dd_45ea_a1f8_4f6b53c6cc95_Class25 ( obj_7c0b52be_cfba_4bf4_bcc1_17a31217f98c o )  ) ) ( type_4340f05f_39dd_45ea_a1f8_4f6b53c6cc95_Class24 ( obj_7c0b52be_cfba_4bf4_bcc1_17a31217f98c o )  ) ) ( type_4340f05f_39dd_45ea_a1f8_4f6b53c6cc95_Class39 ( obj_7c0b52be_cfba_4bf4_bcc1_17a31217f98c o )  ) ) ( type_4340f05f_39dd_45ea_a1f8_4f6b53c6cc95_Class5 ( obj_7c0b52be_cfba_4bf4_bcc1_17a31217f98c o )  ) )):named c16))
(assert (! (exists ((o Int)) (and (and ( type_4340f05f_39dd_45ea_a1f8_4f6b53c6cc95_Class24 ( obj_7c0b52be_cfba_4bf4_bcc1_17a31217f98c o )  )  ( type_4340f05f_39dd_45ea_a1f8_4f6b53c6cc95_Class25 ( obj_7c0b52be_cfba_4bf4_bcc1_17a31217f98c o )  ) ) ( type_4340f05f_39dd_45ea_a1f8_4f6b53c6cc95_Class39 ( obj_7c0b52be_cfba_4bf4_bcc1_17a31217f98c o )  ) )):named c17))
(assert (! (exists ((o Int)) (and ( type_4340f05f_39dd_45ea_a1f8_4f6b53c6cc95_Class25 ( obj_7c0b52be_cfba_4bf4_bcc1_17a31217f98c o )  )  ( type_4340f05f_39dd_45ea_a1f8_4f6b53c6cc95_Class39 ( obj_7c0b52be_cfba_4bf4_bcc1_17a31217f98c o )  ) )):named c18))
(assert (! (exists ((o Int)) ( type_4340f05f_39dd_45ea_a1f8_4f6b53c6cc95_Class26 ( obj_7c0b52be_cfba_4bf4_bcc1_17a31217f98c o )  ) ):named c19))
(assert (! (exists ((o Int)) ( type_4340f05f_39dd_45ea_a1f8_4f6b53c6cc95_Class27 ( obj_7c0b52be_cfba_4bf4_bcc1_17a31217f98c o )  ) ):named c20))
(assert (! (exists ((o Int)) (and (and (and (and (and (and (and ( type_4340f05f_39dd_45ea_a1f8_4f6b53c6cc95_Class28 ( obj_7c0b52be_cfba_4bf4_bcc1_17a31217f98c o )  )  ( type_4340f05f_39dd_45ea_a1f8_4f6b53c6cc95_Class45 ( obj_7c0b52be_cfba_4bf4_bcc1_17a31217f98c o )  ) ) ( type_4340f05f_39dd_45ea_a1f8_4f6b53c6cc95_Class12 ( obj_7c0b52be_cfba_4bf4_bcc1_17a31217f98c o )  ) ) ( type_4340f05f_39dd_45ea_a1f8_4f6b53c6cc95_Class33 ( obj_7c0b52be_cfba_4bf4_bcc1_17a31217f98c o )  ) ) ( type_4340f05f_39dd_45ea_a1f8_4f6b53c6cc95_Class22 ( obj_7c0b52be_cfba_4bf4_bcc1_17a31217f98c o )  ) ) ( type_4340f05f_39dd_45ea_a1f8_4f6b53c6cc95_Class29 ( obj_7c0b52be_cfba_4bf4_bcc1_17a31217f98c o )  ) ) ( type_4340f05f_39dd_45ea_a1f8_4f6b53c6cc95_Class39 ( obj_7c0b52be_cfba_4bf4_bcc1_17a31217f98c o )  ) ) ( type_4340f05f_39dd_45ea_a1f8_4f6b53c6cc95_Class41 ( obj_7c0b52be_cfba_4bf4_bcc1_17a31217f98c o )  ) )):named c21))
(assert (! (exists ((o Int)) (and (and (and (and (and (and ( type_4340f05f_39dd_45ea_a1f8_4f6b53c6cc95_Class29 ( obj_7c0b52be_cfba_4bf4_bcc1_17a31217f98c o )  )  ( type_4340f05f_39dd_45ea_a1f8_4f6b53c6cc95_Class45 ( obj_7c0b52be_cfba_4bf4_bcc1_17a31217f98c o )  ) ) ( type_4340f05f_39dd_45ea_a1f8_4f6b53c6cc95_Class12 ( obj_7c0b52be_cfba_4bf4_bcc1_17a31217f98c o )  ) ) ( type_4340f05f_39dd_45ea_a1f8_4f6b53c6cc95_Class33 ( obj_7c0b52be_cfba_4bf4_bcc1_17a31217f98c o )  ) ) ( type_4340f05f_39dd_45ea_a1f8_4f6b53c6cc95_Class22 ( obj_7c0b52be_cfba_4bf4_bcc1_17a31217f98c o )  ) ) ( type_4340f05f_39dd_45ea_a1f8_4f6b53c6cc95_Class39 ( obj_7c0b52be_cfba_4bf4_bcc1_17a31217f98c o )  ) ) ( type_4340f05f_39dd_45ea_a1f8_4f6b53c6cc95_Class41 ( obj_7c0b52be_cfba_4bf4_bcc1_17a31217f98c o )  ) )):named c22))
(assert (! (exists ((o Int)) (and (and (and ( type_4340f05f_39dd_45ea_a1f8_4f6b53c6cc95_Class3 ( obj_7c0b52be_cfba_4bf4_bcc1_17a31217f98c o )  )  ( type_4340f05f_39dd_45ea_a1f8_4f6b53c6cc95_Class25 ( obj_7c0b52be_cfba_4bf4_bcc1_17a31217f98c o )  ) ) ( type_4340f05f_39dd_45ea_a1f8_4f6b53c6cc95_Class24 ( obj_7c0b52be_cfba_4bf4_bcc1_17a31217f98c o )  ) ) ( type_4340f05f_39dd_45ea_a1f8_4f6b53c6cc95_Class39 ( obj_7c0b52be_cfba_4bf4_bcc1_17a31217f98c o )  ) )):named c23))
(assert (! (exists ((o Int)) (and ( type_4340f05f_39dd_45ea_a1f8_4f6b53c6cc95_Class30 ( obj_7c0b52be_cfba_4bf4_bcc1_17a31217f98c o )  )  ( type_4340f05f_39dd_45ea_a1f8_4f6b53c6cc95_Class39 ( obj_7c0b52be_cfba_4bf4_bcc1_17a31217f98c o )  ) )):named c24))
(assert (! (exists ((o Int)) (and (and (and (and (and ( type_4340f05f_39dd_45ea_a1f8_4f6b53c6cc95_Class31 ( obj_7c0b52be_cfba_4bf4_bcc1_17a31217f98c o )  )  ( type_4340f05f_39dd_45ea_a1f8_4f6b53c6cc95_Class45 ( obj_7c0b52be_cfba_4bf4_bcc1_17a31217f98c o )  ) ) ( type_4340f05f_39dd_45ea_a1f8_4f6b53c6cc95_Class12 ( obj_7c0b52be_cfba_4bf4_bcc1_17a31217f98c o )  ) ) ( type_4340f05f_39dd_45ea_a1f8_4f6b53c6cc95_Class33 ( obj_7c0b52be_cfba_4bf4_bcc1_17a31217f98c o )  ) ) ( type_4340f05f_39dd_45ea_a1f8_4f6b53c6cc95_Class22 ( obj_7c0b52be_cfba_4bf4_bcc1_17a31217f98c o )  ) ) ( type_4340f05f_39dd_45ea_a1f8_4f6b53c6cc95_Class39 ( obj_7c0b52be_cfba_4bf4_bcc1_17a31217f98c o )  ) )):named c25))
(assert (! (exists ((o Int)) ( type_4340f05f_39dd_45ea_a1f8_4f6b53c6cc95_Class32 ( obj_7c0b52be_cfba_4bf4_bcc1_17a31217f98c o )  ) ):named c26))
(assert (! (exists ((o Int)) (and (and ( type_4340f05f_39dd_45ea_a1f8_4f6b53c6cc95_Class33 ( obj_7c0b52be_cfba_4bf4_bcc1_17a31217f98c o )  )  ( type_4340f05f_39dd_45ea_a1f8_4f6b53c6cc95_Class22 ( obj_7c0b52be_cfba_4bf4_bcc1_17a31217f98c o )  ) ) ( type_4340f05f_39dd_45ea_a1f8_4f6b53c6cc95_Class39 ( obj_7c0b52be_cfba_4bf4_bcc1_17a31217f98c o )  ) )):named c27))
(assert (! (exists ((o Int)) (and (and (and ( type_4340f05f_39dd_45ea_a1f8_4f6b53c6cc95_Class34 ( obj_7c0b52be_cfba_4bf4_bcc1_17a31217f98c o )  )  ( type_4340f05f_39dd_45ea_a1f8_4f6b53c6cc95_Class25 ( obj_7c0b52be_cfba_4bf4_bcc1_17a31217f98c o )  ) ) ( type_4340f05f_39dd_45ea_a1f8_4f6b53c6cc95_Class24 ( obj_7c0b52be_cfba_4bf4_bcc1_17a31217f98c o )  ) ) ( type_4340f05f_39dd_45ea_a1f8_4f6b53c6cc95_Class39 ( obj_7c0b52be_cfba_4bf4_bcc1_17a31217f98c o )  ) )):named c28))
(assert (! (exists ((o Int)) (and (and ( type_4340f05f_39dd_45ea_a1f8_4f6b53c6cc95_Class35 ( obj_7c0b52be_cfba_4bf4_bcc1_17a31217f98c o )  )  ( type_4340f05f_39dd_45ea_a1f8_4f6b53c6cc95_Class39 ( obj_7c0b52be_cfba_4bf4_bcc1_17a31217f98c o )  ) ) ( type_4340f05f_39dd_45ea_a1f8_4f6b53c6cc95_Class30 ( obj_7c0b52be_cfba_4bf4_bcc1_17a31217f98c o )  ) )):named c29))
(assert (! (exists ((o Int)) ( type_4340f05f_39dd_45ea_a1f8_4f6b53c6cc95_Class36 ( obj_7c0b52be_cfba_4bf4_bcc1_17a31217f98c o )  ) ):named c30))
(assert (! (exists ((o Int)) ( type_4340f05f_39dd_45ea_a1f8_4f6b53c6cc95_Class37 ( obj_7c0b52be_cfba_4bf4_bcc1_17a31217f98c o )  ) ):named c31))
(assert (! (exists ((o Int)) ( type_4340f05f_39dd_45ea_a1f8_4f6b53c6cc95_Class38 ( obj_7c0b52be_cfba_4bf4_bcc1_17a31217f98c o )  ) ):named c32))
(assert (! (exists ((o Int)) ( type_4340f05f_39dd_45ea_a1f8_4f6b53c6cc95_Class39 ( obj_7c0b52be_cfba_4bf4_bcc1_17a31217f98c o )  ) ):named c33))
(assert (! (exists ((o Int)) ( type_4340f05f_39dd_45ea_a1f8_4f6b53c6cc95_Class4 ( obj_7c0b52be_cfba_4bf4_bcc1_17a31217f98c o )  ) ):named c34))
(assert (! (exists ((o Int)) (and (and (and (and (and (and (and (and (and ( type_4340f05f_39dd_45ea_a1f8_4f6b53c6cc95_Class40 ( obj_7c0b52be_cfba_4bf4_bcc1_17a31217f98c o )  )  ( type_4340f05f_39dd_45ea_a1f8_4f6b53c6cc95_Class45 ( obj_7c0b52be_cfba_4bf4_bcc1_17a31217f98c o )  ) ) ( type_4340f05f_39dd_45ea_a1f8_4f6b53c6cc95_Class12 ( obj_7c0b52be_cfba_4bf4_bcc1_17a31217f98c o )  ) ) ( type_4340f05f_39dd_45ea_a1f8_4f6b53c6cc95_Class55 ( obj_7c0b52be_cfba_4bf4_bcc1_17a31217f98c o )  ) ) ( type_4340f05f_39dd_45ea_a1f8_4f6b53c6cc95_Class33 ( obj_7c0b52be_cfba_4bf4_bcc1_17a31217f98c o )  ) ) ( type_4340f05f_39dd_45ea_a1f8_4f6b53c6cc95_Class22 ( obj_7c0b52be_cfba_4bf4_bcc1_17a31217f98c o )  ) ) ( type_4340f05f_39dd_45ea_a1f8_4f6b53c6cc95_Class29 ( obj_7c0b52be_cfba_4bf4_bcc1_17a31217f98c o )  ) ) ( type_4340f05f_39dd_45ea_a1f8_4f6b53c6cc95_Class39 ( obj_7c0b52be_cfba_4bf4_bcc1_17a31217f98c o )  ) ) ( type_4340f05f_39dd_45ea_a1f8_4f6b53c6cc95_Class50 ( obj_7c0b52be_cfba_4bf4_bcc1_17a31217f98c o )  ) ) ( type_4340f05f_39dd_45ea_a1f8_4f6b53c6cc95_Class41 ( obj_7c0b52be_cfba_4bf4_bcc1_17a31217f98c o )  ) )):named c35))
(assert (! (exists ((o Int)) (and (and (and (and (and ( type_4340f05f_39dd_45ea_a1f8_4f6b53c6cc95_Class41 ( obj_7c0b52be_cfba_4bf4_bcc1_17a31217f98c o )  )  ( type_4340f05f_39dd_45ea_a1f8_4f6b53c6cc95_Class45 ( obj_7c0b52be_cfba_4bf4_bcc1_17a31217f98c o )  ) ) ( type_4340f05f_39dd_45ea_a1f8_4f6b53c6cc95_Class12 ( obj_7c0b52be_cfba_4bf4_bcc1_17a31217f98c o )  ) ) ( type_4340f05f_39dd_45ea_a1f8_4f6b53c6cc95_Class33 ( obj_7c0b52be_cfba_4bf4_bcc1_17a31217f98c o )  ) ) ( type_4340f05f_39dd_45ea_a1f8_4f6b53c6cc95_Class22 ( obj_7c0b52be_cfba_4bf4_bcc1_17a31217f98c o )  ) ) ( type_4340f05f_39dd_45ea_a1f8_4f6b53c6cc95_Class39 ( obj_7c0b52be_cfba_4bf4_bcc1_17a31217f98c o )  ) )):named c36))
(assert (! (exists ((o Int)) (and ( type_4340f05f_39dd_45ea_a1f8_4f6b53c6cc95_Class42 ( obj_7c0b52be_cfba_4bf4_bcc1_17a31217f98c o )  )  ( type_4340f05f_39dd_45ea_a1f8_4f6b53c6cc95_Class39 ( obj_7c0b52be_cfba_4bf4_bcc1_17a31217f98c o )  ) )):named c37))
(assert (! (exists ((o Int)) ( type_4340f05f_39dd_45ea_a1f8_4f6b53c6cc95_Class43 ( obj_7c0b52be_cfba_4bf4_bcc1_17a31217f98c o )  ) ):named c38))
(assert (! (exists ((o Int)) (and (and (and (and (and (and (and ( type_4340f05f_39dd_45ea_a1f8_4f6b53c6cc95_Class44 ( obj_7c0b52be_cfba_4bf4_bcc1_17a31217f98c o )  )  ( type_4340f05f_39dd_45ea_a1f8_4f6b53c6cc95_Class45 ( obj_7c0b52be_cfba_4bf4_bcc1_17a31217f98c o )  ) ) ( type_4340f05f_39dd_45ea_a1f8_4f6b53c6cc95_Class12 ( obj_7c0b52be_cfba_4bf4_bcc1_17a31217f98c o )  ) ) ( type_4340f05f_39dd_45ea_a1f8_4f6b53c6cc95_Class33 ( obj_7c0b52be_cfba_4bf4_bcc1_17a31217f98c o )  ) ) ( type_4340f05f_39dd_45ea_a1f8_4f6b53c6cc95_Class22 ( obj_7c0b52be_cfba_4bf4_bcc1_17a31217f98c o )  ) ) ( type_4340f05f_39dd_45ea_a1f8_4f6b53c6cc95_Class29 ( obj_7c0b52be_cfba_4bf4_bcc1_17a31217f98c o )  ) ) ( type_4340f05f_39dd_45ea_a1f8_4f6b53c6cc95_Class39 ( obj_7c0b52be_cfba_4bf4_bcc1_17a31217f98c o )  ) ) ( type_4340f05f_39dd_45ea_a1f8_4f6b53c6cc95_Class41 ( obj_7c0b52be_cfba_4bf4_bcc1_17a31217f98c o )  ) )):named c39))
(assert (! (exists ((o Int)) (and (and (and (and ( type_4340f05f_39dd_45ea_a1f8_4f6b53c6cc95_Class45 ( obj_7c0b52be_cfba_4bf4_bcc1_17a31217f98c o )  )  ( type_4340f05f_39dd_45ea_a1f8_4f6b53c6cc95_Class12 ( obj_7c0b52be_cfba_4bf4_bcc1_17a31217f98c o )  ) ) ( type_4340f05f_39dd_45ea_a1f8_4f6b53c6cc95_Class33 ( obj_7c0b52be_cfba_4bf4_bcc1_17a31217f98c o )  ) ) ( type_4340f05f_39dd_45ea_a1f8_4f6b53c6cc95_Class22 ( obj_7c0b52be_cfba_4bf4_bcc1_17a31217f98c o )  ) ) ( type_4340f05f_39dd_45ea_a1f8_4f6b53c6cc95_Class39 ( obj_7c0b52be_cfba_4bf4_bcc1_17a31217f98c o )  ) )):named c40))
(assert (! (exists ((o Int)) (and (and ( type_4340f05f_39dd_45ea_a1f8_4f6b53c6cc95_Class46 ( obj_7c0b52be_cfba_4bf4_bcc1_17a31217f98c o )  )  ( type_4340f05f_39dd_45ea_a1f8_4f6b53c6cc95_Class39 ( obj_7c0b52be_cfba_4bf4_bcc1_17a31217f98c o )  ) ) ( type_4340f05f_39dd_45ea_a1f8_4f6b53c6cc95_Class5 ( obj_7c0b52be_cfba_4bf4_bcc1_17a31217f98c o )  ) )):named c41))
(assert (! (exists ((o Int)) ( type_4340f05f_39dd_45ea_a1f8_4f6b53c6cc95_Class47 ( obj_7c0b52be_cfba_4bf4_bcc1_17a31217f98c o )  ) ):named c42))
(assert (! (exists ((o Int)) (and (and (and (and (and (and (and (and (and ( type_4340f05f_39dd_45ea_a1f8_4f6b53c6cc95_Class48 ( obj_7c0b52be_cfba_4bf4_bcc1_17a31217f98c o )  )  ( type_4340f05f_39dd_45ea_a1f8_4f6b53c6cc95_Class45 ( obj_7c0b52be_cfba_4bf4_bcc1_17a31217f98c o )  ) ) ( type_4340f05f_39dd_45ea_a1f8_4f6b53c6cc95_Class12 ( obj_7c0b52be_cfba_4bf4_bcc1_17a31217f98c o )  ) ) ( type_4340f05f_39dd_45ea_a1f8_4f6b53c6cc95_Class55 ( obj_7c0b52be_cfba_4bf4_bcc1_17a31217f98c o )  ) ) ( type_4340f05f_39dd_45ea_a1f8_4f6b53c6cc95_Class33 ( obj_7c0b52be_cfba_4bf4_bcc1_17a31217f98c o )  ) ) ( type_4340f05f_39dd_45ea_a1f8_4f6b53c6cc95_Class22 ( obj_7c0b52be_cfba_4bf4_bcc1_17a31217f98c o )  ) ) ( type_4340f05f_39dd_45ea_a1f8_4f6b53c6cc95_Class29 ( obj_7c0b52be_cfba_4bf4_bcc1_17a31217f98c o )  ) ) ( type_4340f05f_39dd_45ea_a1f8_4f6b53c6cc95_Class39 ( obj_7c0b52be_cfba_4bf4_bcc1_17a31217f98c o )  ) ) ( type_4340f05f_39dd_45ea_a1f8_4f6b53c6cc95_Class50 ( obj_7c0b52be_cfba_4bf4_bcc1_17a31217f98c o )  ) ) ( type_4340f05f_39dd_45ea_a1f8_4f6b53c6cc95_Class41 ( obj_7c0b52be_cfba_4bf4_bcc1_17a31217f98c o )  ) )):named c43))
(assert (! (exists ((o Int)) (and (and (and (and (and (and (and (and (and ( type_4340f05f_39dd_45ea_a1f8_4f6b53c6cc95_Class49 ( obj_7c0b52be_cfba_4bf4_bcc1_17a31217f98c o )  )  ( type_4340f05f_39dd_45ea_a1f8_4f6b53c6cc95_Class45 ( obj_7c0b52be_cfba_4bf4_bcc1_17a31217f98c o )  ) ) ( type_4340f05f_39dd_45ea_a1f8_4f6b53c6cc95_Class12 ( obj_7c0b52be_cfba_4bf4_bcc1_17a31217f98c o )  ) ) ( type_4340f05f_39dd_45ea_a1f8_4f6b53c6cc95_Class55 ( obj_7c0b52be_cfba_4bf4_bcc1_17a31217f98c o )  ) ) ( type_4340f05f_39dd_45ea_a1f8_4f6b53c6cc95_Class33 ( obj_7c0b52be_cfba_4bf4_bcc1_17a31217f98c o )  ) ) ( type_4340f05f_39dd_45ea_a1f8_4f6b53c6cc95_Class22 ( obj_7c0b52be_cfba_4bf4_bcc1_17a31217f98c o )  ) ) ( type_4340f05f_39dd_45ea_a1f8_4f6b53c6cc95_Class29 ( obj_7c0b52be_cfba_4bf4_bcc1_17a31217f98c o )  ) ) ( type_4340f05f_39dd_45ea_a1f8_4f6b53c6cc95_Class39 ( obj_7c0b52be_cfba_4bf4_bcc1_17a31217f98c o )  ) ) ( type_4340f05f_39dd_45ea_a1f8_4f6b53c6cc95_Class50 ( obj_7c0b52be_cfba_4bf4_bcc1_17a31217f98c o )  ) ) ( type_4340f05f_39dd_45ea_a1f8_4f6b53c6cc95_Class41 ( obj_7c0b52be_cfba_4bf4_bcc1_17a31217f98c o )  ) )):named c44))
(assert (! (exists ((o Int)) (and ( type_4340f05f_39dd_45ea_a1f8_4f6b53c6cc95_Class5 ( obj_7c0b52be_cfba_4bf4_bcc1_17a31217f98c o )  )  ( type_4340f05f_39dd_45ea_a1f8_4f6b53c6cc95_Class39 ( obj_7c0b52be_cfba_4bf4_bcc1_17a31217f98c o )  ) )):named c45))
(assert (! (exists ((o Int)) (and (and (and (and (and (and (and (and ( type_4340f05f_39dd_45ea_a1f8_4f6b53c6cc95_Class50 ( obj_7c0b52be_cfba_4bf4_bcc1_17a31217f98c o )  )  ( type_4340f05f_39dd_45ea_a1f8_4f6b53c6cc95_Class45 ( obj_7c0b52be_cfba_4bf4_bcc1_17a31217f98c o )  ) ) ( type_4340f05f_39dd_45ea_a1f8_4f6b53c6cc95_Class12 ( obj_7c0b52be_cfba_4bf4_bcc1_17a31217f98c o )  ) ) ( type_4340f05f_39dd_45ea_a1f8_4f6b53c6cc95_Class55 ( obj_7c0b52be_cfba_4bf4_bcc1_17a31217f98c o )  ) ) ( type_4340f05f_39dd_45ea_a1f8_4f6b53c6cc95_Class33 ( obj_7c0b52be_cfba_4bf4_bcc1_17a31217f98c o )  ) ) ( type_4340f05f_39dd_45ea_a1f8_4f6b53c6cc95_Class22 ( obj_7c0b52be_cfba_4bf4_bcc1_17a31217f98c o )  ) ) ( type_4340f05f_39dd_45ea_a1f8_4f6b53c6cc95_Class29 ( obj_7c0b52be_cfba_4bf4_bcc1_17a31217f98c o )  ) ) ( type_4340f05f_39dd_45ea_a1f8_4f6b53c6cc95_Class39 ( obj_7c0b52be_cfba_4bf4_bcc1_17a31217f98c o )  ) ) ( type_4340f05f_39dd_45ea_a1f8_4f6b53c6cc95_Class41 ( obj_7c0b52be_cfba_4bf4_bcc1_17a31217f98c o )  ) )):named c46))
(assert (! (exists ((o Int)) (and (and (and (and (and (and ( type_4340f05f_39dd_45ea_a1f8_4f6b53c6cc95_Class51 ( obj_7c0b52be_cfba_4bf4_bcc1_17a31217f98c o )  )  ( type_4340f05f_39dd_45ea_a1f8_4f6b53c6cc95_Class45 ( obj_7c0b52be_cfba_4bf4_bcc1_17a31217f98c o )  ) ) ( type_4340f05f_39dd_45ea_a1f8_4f6b53c6cc95_Class12 ( obj_7c0b52be_cfba_4bf4_bcc1_17a31217f98c o )  ) ) ( type_4340f05f_39dd_45ea_a1f8_4f6b53c6cc95_Class33 ( obj_7c0b52be_cfba_4bf4_bcc1_17a31217f98c o )  ) ) ( type_4340f05f_39dd_45ea_a1f8_4f6b53c6cc95_Class22 ( obj_7c0b52be_cfba_4bf4_bcc1_17a31217f98c o )  ) ) ( type_4340f05f_39dd_45ea_a1f8_4f6b53c6cc95_Class16 ( obj_7c0b52be_cfba_4bf4_bcc1_17a31217f98c o )  ) ) ( type_4340f05f_39dd_45ea_a1f8_4f6b53c6cc95_Class39 ( obj_7c0b52be_cfba_4bf4_bcc1_17a31217f98c o )  ) )):named c47))
(assert (! (exists ((o Int)) (and (and (and (and (and ( type_4340f05f_39dd_45ea_a1f8_4f6b53c6cc95_Class52 ( obj_7c0b52be_cfba_4bf4_bcc1_17a31217f98c o )  )  ( type_4340f05f_39dd_45ea_a1f8_4f6b53c6cc95_Class45 ( obj_7c0b52be_cfba_4bf4_bcc1_17a31217f98c o )  ) ) ( type_4340f05f_39dd_45ea_a1f8_4f6b53c6cc95_Class12 ( obj_7c0b52be_cfba_4bf4_bcc1_17a31217f98c o )  ) ) ( type_4340f05f_39dd_45ea_a1f8_4f6b53c6cc95_Class33 ( obj_7c0b52be_cfba_4bf4_bcc1_17a31217f98c o )  ) ) ( type_4340f05f_39dd_45ea_a1f8_4f6b53c6cc95_Class22 ( obj_7c0b52be_cfba_4bf4_bcc1_17a31217f98c o )  ) ) ( type_4340f05f_39dd_45ea_a1f8_4f6b53c6cc95_Class39 ( obj_7c0b52be_cfba_4bf4_bcc1_17a31217f98c o )  ) )):named c48))
(assert (! (exists ((o Int)) ( type_4340f05f_39dd_45ea_a1f8_4f6b53c6cc95_Class53 ( obj_7c0b52be_cfba_4bf4_bcc1_17a31217f98c o )  ) ):named c49))
(assert (! (exists ((o Int)) ( type_4340f05f_39dd_45ea_a1f8_4f6b53c6cc95_Class54 ( obj_7c0b52be_cfba_4bf4_bcc1_17a31217f98c o )  ) ):named c50))
(assert (! (exists ((o Int)) (and (and (and (and (and (and (and ( type_4340f05f_39dd_45ea_a1f8_4f6b53c6cc95_Class55 ( obj_7c0b52be_cfba_4bf4_bcc1_17a31217f98c o )  )  ( type_4340f05f_39dd_45ea_a1f8_4f6b53c6cc95_Class45 ( obj_7c0b52be_cfba_4bf4_bcc1_17a31217f98c o )  ) ) ( type_4340f05f_39dd_45ea_a1f8_4f6b53c6cc95_Class12 ( obj_7c0b52be_cfba_4bf4_bcc1_17a31217f98c o )  ) ) ( type_4340f05f_39dd_45ea_a1f8_4f6b53c6cc95_Class33 ( obj_7c0b52be_cfba_4bf4_bcc1_17a31217f98c o )  ) ) ( type_4340f05f_39dd_45ea_a1f8_4f6b53c6cc95_Class22 ( obj_7c0b52be_cfba_4bf4_bcc1_17a31217f98c o )  ) ) ( type_4340f05f_39dd_45ea_a1f8_4f6b53c6cc95_Class29 ( obj_7c0b52be_cfba_4bf4_bcc1_17a31217f98c o )  ) ) ( type_4340f05f_39dd_45ea_a1f8_4f6b53c6cc95_Class39 ( obj_7c0b52be_cfba_4bf4_bcc1_17a31217f98c o )  ) ) ( type_4340f05f_39dd_45ea_a1f8_4f6b53c6cc95_Class41 ( obj_7c0b52be_cfba_4bf4_bcc1_17a31217f98c o )  ) )):named c51))
(assert (! (exists ((o Int)) ( type_4340f05f_39dd_45ea_a1f8_4f6b53c6cc95_Class6 ( obj_7c0b52be_cfba_4bf4_bcc1_17a31217f98c o )  ) ):named c52))
(assert (! (exists ((o Int)) (and (and (and (and (and (and (and (and (and ( type_4340f05f_39dd_45ea_a1f8_4f6b53c6cc95_Class7 ( obj_7c0b52be_cfba_4bf4_bcc1_17a31217f98c o )  )  ( type_4340f05f_39dd_45ea_a1f8_4f6b53c6cc95_Class45 ( obj_7c0b52be_cfba_4bf4_bcc1_17a31217f98c o )  ) ) ( type_4340f05f_39dd_45ea_a1f8_4f6b53c6cc95_Class12 ( obj_7c0b52be_cfba_4bf4_bcc1_17a31217f98c o )  ) ) ( type_4340f05f_39dd_45ea_a1f8_4f6b53c6cc95_Class55 ( obj_7c0b52be_cfba_4bf4_bcc1_17a31217f98c o )  ) ) ( type_4340f05f_39dd_45ea_a1f8_4f6b53c6cc95_Class33 ( obj_7c0b52be_cfba_4bf4_bcc1_17a31217f98c o )  ) ) ( type_4340f05f_39dd_45ea_a1f8_4f6b53c6cc95_Class22 ( obj_7c0b52be_cfba_4bf4_bcc1_17a31217f98c o )  ) ) ( type_4340f05f_39dd_45ea_a1f8_4f6b53c6cc95_Class29 ( obj_7c0b52be_cfba_4bf4_bcc1_17a31217f98c o )  ) ) ( type_4340f05f_39dd_45ea_a1f8_4f6b53c6cc95_Class39 ( obj_7c0b52be_cfba_4bf4_bcc1_17a31217f98c o )  ) ) ( type_4340f05f_39dd_45ea_a1f8_4f6b53c6cc95_Class50 ( obj_7c0b52be_cfba_4bf4_bcc1_17a31217f98c o )  ) ) ( type_4340f05f_39dd_45ea_a1f8_4f6b53c6cc95_Class41 ( obj_7c0b52be_cfba_4bf4_bcc1_17a31217f98c o )  ) )):named c53))
(assert (! (exists ((o Int)) (and ( type_4340f05f_39dd_45ea_a1f8_4f6b53c6cc95_Class8 ( obj_7c0b52be_cfba_4bf4_bcc1_17a31217f98c o )  )  ( type_4340f05f_39dd_45ea_a1f8_4f6b53c6cc95_Class39 ( obj_7c0b52be_cfba_4bf4_bcc1_17a31217f98c o )  ) )):named c54))
(assert (! (exists ((o Int)) ( type_4340f05f_39dd_45ea_a1f8_4f6b53c6cc95_Class9 ( obj_7c0b52be_cfba_4bf4_bcc1_17a31217f98c o )  ) ):named c55))

 ;end of formula 